MINIMIZE
x010 + x011 + x012 + x013 + x020 + x021 + x022 + x023 + x030 + x031 + x032 + x033 + x040 + x041 + x042 + x043 + x050 + x051 + x052 + x053 + x060 + x061 + x062 + x063 + x070 + x071 + x072 + x073 + x100 + 
x101 + x102 + x103 + x120 + x121 + x122 + x123 + x130 + x131 + x132 + x133 + x140 + x141 + x142 + x143 + x150 + x151 + x152 + x153 + x160 + x161 + x162 + x163 + x170 + x171 + x172 + x173 + x200 + x201 + 
x202 + x203 + x210 + x211 + x212 + x213 + x230 + x231 + x232 + x233 + x240 + x241 + x242 + x243 + x250 + x251 + x252 + x253 + x260 + x261 + x262 + x263 + x270 + x271 + x272 + x273 + x300 + x301 + x302 + 
x303 + x310 + x311 + x312 + x313 + x320 + x321 + x322 + x323 + x340 + x341 + x342 + x343 + x350 + x351 + x352 + x353 + x360 + x361 + x362 + x363 + x370 + x371 + x372 + x373 + x400 + x401 + x402 + x403 + 
x410 + x411 + x412 + x413 + x420 + x421 + x422 + x423 + x430 + x431 + x432 + x433 + x450 + x451 + x452 + x453 + x460 + x461 + x462 + x463 + x470 + x471 + x472 + x473 + x500 + x501 + x502 + x503 + x510 + 
x511 + x512 + x513 + x520 + x521 + x522 + x523 + x530 + x531 + x532 + x533 + x540 + x541 + x542 + x543 + x560 + x561 + x562 + x563 + x570 + x571 + x572 + x573 + x600 + x601 + x602 + x603 + x610 + x611 + 
x612 + x613 + x620 + x621 + x622 + x623 + x630 + x631 + x632 + x633 + x640 + x641 + x642 + x643 + x650 + x651 + x652 + x653 + x670 + x671 + x672 + x673 + x700 + x701 + x702 + x703 + x710 + x711 + x712 + 
x713 + x720 + x721 + x722 + x723 + x730 + x731 + x732 + x733 + x740 + x741 + x742 + x743 + x750 + x751 + x752 + x753 + x760 + x761 + x762 + x763
SUBJECT TO
\Constraint 2
1 x100 + 1 x120 + 1 x130 + 1 x140 + 1 x150 + 1 x160 + 1 x170 + 1 x101 + 1 x121 + 1 x131 + 1 x141 + 1 x151 + 1 x161 + 1 x171 + 1 x102 + 1 x122 + 1 x132 + 1 x142 + 1 x152 + 1 x162 + 1 x172 + 1 x103 + 1 x123 + 
1 x133 + 1 x143 + 1 x153 + 1 x163 + 1 x173 = 1
1 x200 + 1 x210 + 1 x230 + 1 x240 + 1 x250 + 1 x260 + 1 x270 + 1 x201 + 1 x211 + 1 x231 + 1 x241 + 1 x251 + 1 x261 + 1 x271 + 1 x202 + 1 x212 + 1 x232 + 1 x242 + 1 x252 + 1 x262 + 1 x272 + 1 x203 + 1 x213 + 
1 x233 + 1 x243 + 1 x253 + 1 x263 + 1 x273 = 1
1 x300 + 1 x310 + 1 x320 + 1 x340 + 1 x350 + 1 x360 + 1 x370 + 1 x301 + 1 x311 + 1 x321 + 1 x341 + 1 x351 + 1 x361 + 1 x371 + 1 x302 + 1 x312 + 1 x322 + 1 x342 + 1 x352 + 1 x362 + 1 x372 + 1 x303 + 1 x313 + 
1 x323 + 1 x343 + 1 x353 + 1 x363 + 1 x373 = 1

\Constraint 3
1 x100 + 1 x120 + 1 x130 + 1 x140 + 1 x150 + 1 x160 + 1 x170 - 1 x400 - 1 x420 - 1 x430 - 1 x450 - 1 x460 - 1 x470 = 0
1 x101 + 1 x121 + 1 x131 + 1 x141 + 1 x151 + 1 x161 + 1 x171 - 1 x401 - 1 x421 - 1 x431 - 1 x451 - 1 x461 - 1 x471 = 0
1 x102 + 1 x122 + 1 x132 + 1 x142 + 1 x152 + 1 x162 + 1 x172 - 1 x402 - 1 x422 - 1 x432 - 1 x452 - 1 x462 - 1 x472 = 0
1 x103 + 1 x123 + 1 x133 + 1 x143 + 1 x153 + 1 x163 + 1 x173 - 1 x403 - 1 x423 - 1 x433 - 1 x453 - 1 x463 - 1 x473 = 0
1 x200 + 1 x210 + 1 x230 + 1 x240 + 1 x250 + 1 x260 + 1 x270 - 1 x500 - 1 x510 - 1 x530 - 1 x540 - 1 x560 - 1 x570 = 0
1 x201 + 1 x211 + 1 x231 + 1 x241 + 1 x251 + 1 x261 + 1 x271 - 1 x501 - 1 x511 - 1 x531 - 1 x541 - 1 x561 - 1 x571 = 0
1 x202 + 1 x212 + 1 x232 + 1 x242 + 1 x252 + 1 x262 + 1 x272 - 1 x502 - 1 x512 - 1 x532 - 1 x542 - 1 x562 - 1 x572 = 0
1 x203 + 1 x213 + 1 x233 + 1 x243 + 1 x253 + 1 x263 + 1 x273 - 1 x503 - 1 x513 - 1 x533 - 1 x543 - 1 x563 - 1 x573 = 0
1 x300 + 1 x310 + 1 x320 + 1 x340 + 1 x350 + 1 x360 + 1 x370 - 1 x600 - 1 x610 - 1 x620 - 1 x640 - 1 x650 - 1 x670 = 0
1 x301 + 1 x311 + 1 x321 + 1 x341 + 1 x351 + 1 x361 + 1 x371 - 1 x601 - 1 x611 - 1 x621 - 1 x641 - 1 x651 - 1 x671 = 0
1 x302 + 1 x312 + 1 x322 + 1 x342 + 1 x352 + 1 x362 + 1 x372 - 1 x602 - 1 x612 - 1 x622 - 1 x642 - 1 x652 - 1 x672 = 0
1 x303 + 1 x313 + 1 x323 + 1 x343 + 1 x353 + 1 x363 + 1 x373 - 1 x603 - 1 x613 - 1 x623 - 1 x643 - 1 x653 - 1 x673 = 0

\Constraint 4
1 x010 + 1 x020 + 1 x030 + 1 x040 + 1 x050 + 1 x060 + 1 x070 = 1
1 x011 + 1 x021 + 1 x031 + 1 x041 + 1 x051 + 1 x061 + 1 x071 = 1
1 x012 + 1 x022 + 1 x032 + 1 x042 + 1 x052 + 1 x062 + 1 x072 = 1
1 x013 + 1 x023 + 1 x033 + 1 x043 + 1 x053 + 1 x063 + 1 x073 = 1

\Constraint 5
1 x010 + 1 x210 + 1 x310 + 1 x410 + 1 x510 + 1 x610 + 1 x710 - 1 x100 - 1 x120 - 1 x130 - 1 x140 - 1 x150 - 1 x160 - 1 x170 = 0
1 x011 + 1 x211 + 1 x311 + 1 x411 + 1 x511 + 1 x611 + 1 x711 - 1 x101 - 1 x121 - 1 x131 - 1 x141 - 1 x151 - 1 x161 - 1 x171 = 0
1 x012 + 1 x212 + 1 x312 + 1 x412 + 1 x512 + 1 x612 + 1 x712 - 1 x102 - 1 x122 - 1 x132 - 1 x142 - 1 x152 - 1 x162 - 1 x172 = 0
1 x013 + 1 x213 + 1 x313 + 1 x413 + 1 x513 + 1 x613 + 1 x713 - 1 x103 - 1 x123 - 1 x133 - 1 x143 - 1 x153 - 1 x163 - 1 x173 = 0
1 x020 + 1 x120 + 1 x320 + 1 x420 + 1 x520 + 1 x620 + 1 x720 - 1 x200 - 1 x210 - 1 x230 - 1 x240 - 1 x250 - 1 x260 - 1 x270 = 0
1 x021 + 1 x121 + 1 x321 + 1 x421 + 1 x521 + 1 x621 + 1 x721 - 1 x201 - 1 x211 - 1 x231 - 1 x241 - 1 x251 - 1 x261 - 1 x271 = 0
1 x022 + 1 x122 + 1 x322 + 1 x422 + 1 x522 + 1 x622 + 1 x722 - 1 x202 - 1 x212 - 1 x232 - 1 x242 - 1 x252 - 1 x262 - 1 x272 = 0
1 x023 + 1 x123 + 1 x323 + 1 x423 + 1 x523 + 1 x623 + 1 x723 - 1 x203 - 1 x213 - 1 x233 - 1 x243 - 1 x253 - 1 x263 - 1 x273 = 0
1 x030 + 1 x130 + 1 x230 + 1 x430 + 1 x530 + 1 x630 + 1 x730 - 1 x300 - 1 x310 - 1 x320 - 1 x340 - 1 x350 - 1 x360 - 1 x370 = 0
1 x031 + 1 x131 + 1 x231 + 1 x431 + 1 x531 + 1 x631 + 1 x731 - 1 x301 - 1 x311 - 1 x321 - 1 x341 - 1 x351 - 1 x361 - 1 x371 = 0
1 x032 + 1 x132 + 1 x232 + 1 x432 + 1 x532 + 1 x632 + 1 x732 - 1 x302 - 1 x312 - 1 x322 - 1 x342 - 1 x352 - 1 x362 - 1 x372 = 0
1 x033 + 1 x133 + 1 x233 + 1 x433 + 1 x533 + 1 x633 + 1 x733 - 1 x303 - 1 x313 - 1 x323 - 1 x343 - 1 x353 - 1 x363 - 1 x373 = 0
1 x040 + 1 x140 + 1 x240 + 1 x340 + 1 x540 + 1 x640 + 1 x740 - 1 x400 - 1 x410 - 1 x420 - 1 x430 - 1 x450 - 1 x460 - 1 x470 = 0
1 x041 + 1 x141 + 1 x241 + 1 x341 + 1 x541 + 1 x641 + 1 x741 - 1 x401 - 1 x411 - 1 x421 - 1 x431 - 1 x451 - 1 x461 - 1 x471 = 0
1 x042 + 1 x142 + 1 x242 + 1 x342 + 1 x542 + 1 x642 + 1 x742 - 1 x402 - 1 x412 - 1 x422 - 1 x432 - 1 x452 - 1 x462 - 1 x472 = 0
1 x043 + 1 x143 + 1 x243 + 1 x343 + 1 x543 + 1 x643 + 1 x743 - 1 x403 - 1 x413 - 1 x423 - 1 x433 - 1 x453 - 1 x463 - 1 x473 = 0
1 x050 + 1 x150 + 1 x250 + 1 x350 + 1 x450 + 1 x650 + 1 x750 - 1 x500 - 1 x510 - 1 x520 - 1 x530 - 1 x540 - 1 x560 - 1 x570 = 0
1 x051 + 1 x151 + 1 x251 + 1 x351 + 1 x451 + 1 x651 + 1 x751 - 1 x501 - 1 x511 - 1 x521 - 1 x531 - 1 x541 - 1 x561 - 1 x571 = 0
1 x052 + 1 x152 + 1 x252 + 1 x352 + 1 x452 + 1 x652 + 1 x752 - 1 x502 - 1 x512 - 1 x522 - 1 x532 - 1 x542 - 1 x562 - 1 x572 = 0
1 x053 + 1 x153 + 1 x253 + 1 x353 + 1 x453 + 1 x653 + 1 x753 - 1 x503 - 1 x513 - 1 x523 - 1 x533 - 1 x543 - 1 x563 - 1 x573 = 0
1 x060 + 1 x160 + 1 x260 + 1 x360 + 1 x460 + 1 x560 + 1 x760 - 1 x600 - 1 x610 - 1 x620 - 1 x630 - 1 x640 - 1 x650 - 1 x670 = 0
1 x061 + 1 x161 + 1 x261 + 1 x361 + 1 x461 + 1 x561 + 1 x761 - 1 x601 - 1 x611 - 1 x621 - 1 x631 - 1 x641 - 1 x651 - 1 x671 = 0
1 x062 + 1 x162 + 1 x262 + 1 x362 + 1 x462 + 1 x562 + 1 x762 - 1 x602 - 1 x612 - 1 x622 - 1 x632 - 1 x642 - 1 x652 - 1 x672 = 0
1 x063 + 1 x163 + 1 x263 + 1 x363 + 1 x463 + 1 x563 + 1 x763 - 1 x603 - 1 x613 - 1 x623 - 1 x633 - 1 x643 - 1 x653 - 1 x673 = 0

\Constraint 6
1 x080 + 1 x180 + 1 x280 + 1 x380 + 1 x480 + 1 x580 + 1 x680 + 1 x780 = 1
1 x081 + 1 x181 + 1 x281 + 1 x381 + 1 x481 + 1 x581 + 1 x681 + 1 x781 = 1
1 x082 + 1 x182 + 1 x282 + 1 x382 + 1 x482 + 1 x582 + 1 x682 + 1 x782 = 1
1 x083 + 1 x183 + 1 x283 + 1 x383 + 1 x483 + 1 x583 + 1 x683 + 1 x783 = 1

\Constraint 7
1 b00 - 1 b10 + 0 x010 <= -10
1 b01 - 1 b11 + 0 x011 <= -10
1 b02 - 1 b12 + 0 x012 <= -10
1 b03 - 1 b13 + 0 x013 <= -10
1 b00 - 1 b20 + 0 x020 <= -10
1 b01 - 1 b21 + 0 x021 <= -10
1 b02 - 1 b22 + 0 x022 <= -10
1 b03 - 1 b23 + 0 x023 <= -10
1 b00 - 1 b30 + 0 x030 <= -10
1 b01 - 1 b31 + 0 x031 <= -10
1 b02 - 1 b32 + 0 x032 <= -10
1 b03 - 1 b33 + 0 x033 <= -10
1 b00 - 1 b40 + 0 x040 <= -10
1 b01 - 1 b41 + 0 x041 <= -10
1 b02 - 1 b42 + 0 x042 <= -10
1 b03 - 1 b43 + 0 x043 <= -10
1 b00 - 1 b50 + 0 x050 <= -10
1 b01 - 1 b51 + 0 x051 <= -10
1 b02 - 1 b52 + 0 x052 <= -10
1 b03 - 1 b53 + 0 x053 <= -10
1 b00 - 1 b60 + 0 x060 <= -10
1 b01 - 1 b61 + 0 x061 <= -10
1 b02 - 1 b62 + 0 x062 <= -10
1 b03 - 1 b63 + 0 x063 <= -10
1 b00 - 1 b70 + 0 x070 <= -10
1 b01 - 1 b71 + 0 x071 <= -10
1 b02 - 1 b72 + 0 x072 <= -10
1 b03 - 1 b73 + 0 x073 <= -10
1 b10 - 1 b00 + 820 x100 <= 810
1 b11 - 1 b01 + 820 x101 <= 810
1 b12 - 1 b02 + 820 x102 <= 810
1 b13 - 1 b03 + 820 x103 <= 810
1 b10 - 1 b20 + 0 x120 <= -10
1 b11 - 1 b21 + 0 x121 <= -10
1 b12 - 1 b22 + 0 x122 <= -10
1 b13 - 1 b23 + 0 x123 <= -10
1 b10 - 1 b30 + 0 x130 <= -10
1 b11 - 1 b31 + 0 x131 <= -10
1 b12 - 1 b32 + 0 x132 <= -10
1 b13 - 1 b33 + 0 x133 <= -10
1 b10 - 1 b40 + 0 x140 <= -10
1 b11 - 1 b41 + 0 x141 <= -10
1 b12 - 1 b42 + 0 x142 <= -10
1 b13 - 1 b43 + 0 x143 <= -10
1 b10 - 1 b50 + 0 x150 <= -10
1 b11 - 1 b51 + 0 x151 <= -10
1 b12 - 1 b52 + 0 x152 <= -10
1 b13 - 1 b53 + 0 x153 <= -10
1 b10 - 1 b60 + 0 x160 <= -10
1 b11 - 1 b61 + 0 x161 <= -10
1 b12 - 1 b62 + 0 x162 <= -10
1 b13 - 1 b63 + 0 x163 <= -10
1 b10 - 1 b70 + 20 x170 <= 10
1 b11 - 1 b71 + 20 x171 <= 10
1 b12 - 1 b72 + 20 x172 <= 10
1 b13 - 1 b73 + 20 x173 <= 10
1 b20 - 1 b00 + 850 x200 <= 840
1 b21 - 1 b01 + 850 x201 <= 840
1 b22 - 1 b02 + 850 x202 <= 840
1 b23 - 1 b03 + 850 x203 <= 840
1 b20 - 1 b10 + 50 x210 <= 40
1 b21 - 1 b11 + 50 x211 <= 40
1 b22 - 1 b12 + 50 x212 <= 40
1 b23 - 1 b13 + 50 x213 <= 40
1 b20 - 1 b30 + 0 x230 <= -10
1 b21 - 1 b31 + 0 x231 <= -10
1 b22 - 1 b32 + 0 x232 <= -10
1 b23 - 1 b33 + 0 x233 <= -10
1 b20 - 1 b40 + 0 x240 <= -10
1 b21 - 1 b41 + 0 x241 <= -10
1 b22 - 1 b42 + 0 x242 <= -10
1 b23 - 1 b43 + 0 x243 <= -10
1 b20 - 1 b50 + 0 x250 <= -10
1 b21 - 1 b51 + 0 x251 <= -10
1 b22 - 1 b52 + 0 x252 <= -10
1 b23 - 1 b53 + 0 x253 <= -10
1 b20 - 1 b60 + 0 x260 <= -10
1 b21 - 1 b61 + 0 x261 <= -10
1 b22 - 1 b62 + 0 x262 <= -10
1 b23 - 1 b63 + 0 x263 <= -10
1 b20 - 1 b70 + 50 x270 <= 40
1 b21 - 1 b71 + 50 x271 <= 40
1 b22 - 1 b72 + 50 x272 <= 40
1 b23 - 1 b73 + 50 x273 <= 40
1 b30 - 1 b00 + 2365 x300 <= 2355
1 b31 - 1 b01 + 2365 x301 <= 2355
1 b32 - 1 b02 + 2365 x302 <= 2355
1 b33 - 1 b03 + 2365 x303 <= 2355
1 b30 - 1 b10 + 1565 x310 <= 1555
1 b31 - 1 b11 + 1565 x311 <= 1555
1 b32 - 1 b12 + 1565 x312 <= 1555
1 b33 - 1 b13 + 1565 x313 <= 1555
1 b30 - 1 b20 + 1535 x320 <= 1525
1 b31 - 1 b21 + 1535 x321 <= 1525
1 b32 - 1 b22 + 1535 x322 <= 1525
1 b33 - 1 b23 + 1535 x323 <= 1525
1 b30 - 1 b40 + 1465 x340 <= 1455
1 b31 - 1 b41 + 1465 x341 <= 1455
1 b32 - 1 b42 + 1465 x342 <= 1455
1 b33 - 1 b43 + 1465 x343 <= 1455
1 b30 - 1 b50 + 965 x350 <= 955
1 b31 - 1 b51 + 965 x351 <= 955
1 b32 - 1 b52 + 965 x352 <= 955
1 b33 - 1 b53 + 965 x353 <= 955
1 b30 - 1 b60 + 1450 x360 <= 1440
1 b31 - 1 b61 + 1450 x361 <= 1440
1 b32 - 1 b62 + 1450 x362 <= 1440
1 b33 - 1 b63 + 1450 x363 <= 1440
1 b30 - 1 b70 + 1565 x370 <= 1555
1 b31 - 1 b71 + 1565 x371 <= 1555
1 b32 - 1 b72 + 1565 x372 <= 1555
1 b33 - 1 b73 + 1565 x373 <= 1555
1 b40 - 1 b00 + 920 x400 <= 910
1 b41 - 1 b01 + 920 x401 <= 910
1 b42 - 1 b02 + 920 x402 <= 910
1 b43 - 1 b03 + 920 x403 <= 910
1 b40 - 1 b10 + 120 x410 <= 110
1 b41 - 1 b11 + 120 x411 <= 110
1 b42 - 1 b12 + 120 x412 <= 110
1 b43 - 1 b13 + 120 x413 <= 110
1 b40 - 1 b20 + 90 x420 <= 80
1 b41 - 1 b21 + 90 x421 <= 80
1 b42 - 1 b22 + 90 x422 <= 80
1 b43 - 1 b23 + 90 x423 <= 80
1 b40 - 1 b30 + 0 x430 <= -10
1 b41 - 1 b31 + 0 x431 <= -10
1 b42 - 1 b32 + 0 x432 <= -10
1 b43 - 1 b33 + 0 x433 <= -10
1 b40 - 1 b50 + 0 x450 <= -10
1 b41 - 1 b51 + 0 x451 <= -10
1 b42 - 1 b52 + 0 x452 <= -10
1 b43 - 1 b53 + 0 x453 <= -10
1 b40 - 1 b60 + 5 x460 <= -5
1 b41 - 1 b61 + 5 x461 <= -5
1 b42 - 1 b62 + 5 x462 <= -5
1 b43 - 1 b63 + 5 x463 <= -5
1 b40 - 1 b70 + 120 x470 <= 110
1 b41 - 1 b71 + 120 x471 <= 110
1 b42 - 1 b72 + 120 x472 <= 110
1 b43 - 1 b73 + 120 x473 <= 110
1 b50 - 1 b00 + 1420 x500 <= 1410
1 b51 - 1 b01 + 1420 x501 <= 1410
1 b52 - 1 b02 + 1420 x502 <= 1410
1 b53 - 1 b03 + 1420 x503 <= 1410
1 b50 - 1 b10 + 620 x510 <= 610
1 b51 - 1 b11 + 620 x511 <= 610
1 b52 - 1 b12 + 620 x512 <= 610
1 b53 - 1 b13 + 620 x513 <= 610
1 b50 - 1 b20 + 590 x520 <= 580
1 b51 - 1 b21 + 590 x521 <= 580
1 b52 - 1 b22 + 590 x522 <= 580
1 b53 - 1 b23 + 590 x523 <= 580
1 b50 - 1 b30 + 0 x530 <= -10
1 b51 - 1 b31 + 0 x531 <= -10
1 b52 - 1 b32 + 0 x532 <= -10
1 b53 - 1 b33 + 0 x533 <= -10
1 b50 - 1 b40 + 520 x540 <= 510
1 b51 - 1 b41 + 520 x541 <= 510
1 b52 - 1 b42 + 520 x542 <= 510
1 b53 - 1 b43 + 520 x543 <= 510
1 b50 - 1 b60 + 505 x560 <= 495
1 b51 - 1 b61 + 505 x561 <= 495
1 b52 - 1 b62 + 505 x562 <= 495
1 b53 - 1 b63 + 505 x563 <= 495
1 b50 - 1 b70 + 620 x570 <= 610
1 b51 - 1 b71 + 620 x571 <= 610
1 b52 - 1 b72 + 620 x572 <= 610
1 b53 - 1 b73 + 620 x573 <= 610
1 b60 - 1 b00 + 935 x600 <= 925
1 b61 - 1 b01 + 935 x601 <= 925
1 b62 - 1 b02 + 935 x602 <= 925
1 b63 - 1 b03 + 935 x603 <= 925
1 b60 - 1 b10 + 135 x610 <= 125
1 b61 - 1 b11 + 135 x611 <= 125
1 b62 - 1 b12 + 135 x612 <= 125
1 b63 - 1 b13 + 135 x613 <= 125
1 b60 - 1 b20 + 105 x620 <= 95
1 b61 - 1 b21 + 105 x621 <= 95
1 b62 - 1 b22 + 105 x622 <= 95
1 b63 - 1 b23 + 105 x623 <= 95
1 b60 - 1 b30 + 0 x630 <= -10
1 b61 - 1 b31 + 0 x631 <= -10
1 b62 - 1 b32 + 0 x632 <= -10
1 b63 - 1 b33 + 0 x633 <= -10
1 b60 - 1 b40 + 35 x640 <= 25
1 b61 - 1 b41 + 35 x641 <= 25
1 b62 - 1 b42 + 35 x642 <= 25
1 b63 - 1 b43 + 35 x643 <= 25
1 b60 - 1 b50 + 0 x650 <= -10
1 b61 - 1 b51 + 0 x651 <= -10
1 b62 - 1 b52 + 0 x652 <= -10
1 b63 - 1 b53 + 0 x653 <= -10
1 b60 - 1 b70 + 135 x670 <= 125
1 b61 - 1 b71 + 135 x671 <= 125
1 b62 - 1 b72 + 135 x672 <= 125
1 b63 - 1 b73 + 135 x673 <= 125
1 b70 - 1 b00 + 820 x700 <= 810
1 b71 - 1 b01 + 820 x701 <= 810
1 b72 - 1 b02 + 820 x702 <= 810
1 b73 - 1 b03 + 820 x703 <= 810
1 b70 - 1 b10 + 20 x710 <= 10
1 b71 - 1 b11 + 20 x711 <= 10
1 b72 - 1 b12 + 20 x712 <= 10
1 b73 - 1 b13 + 20 x713 <= 10
1 b70 - 1 b20 + 0 x720 <= -10
1 b71 - 1 b21 + 0 x721 <= -10
1 b72 - 1 b22 + 0 x722 <= -10
1 b73 - 1 b23 + 0 x723 <= -10
1 b70 - 1 b30 + 0 x730 <= -10
1 b71 - 1 b31 + 0 x731 <= -10
1 b72 - 1 b32 + 0 x732 <= -10
1 b73 - 1 b33 + 0 x733 <= -10
1 b70 - 1 b40 + 0 x740 <= -10
1 b71 - 1 b41 + 0 x741 <= -10
1 b72 - 1 b42 + 0 x742 <= -10
1 b73 - 1 b43 + 0 x743 <= -10
1 b70 - 1 b50 + 0 x750 <= -10
1 b71 - 1 b51 + 0 x751 <= -10
1 b72 - 1 b52 + 0 x752 <= -10
1 b73 - 1 b53 + 0 x753 <= -10
1 b70 - 1 b60 + 0 x760 <= -10
1 b71 - 1 b61 + 0 x761 <= -10
1 b72 - 1 b62 + 0 x762 <= -10
1 b73 - 1 b63 + 0 x763 <= -10

BINARY
x010 x011 x012 x013 x020 x021 x022 x023 x030 x031 x032 x033 x040 x041 x042 x043 x050 x051 x052 x053 x060 x061 x062 x063 x070 x071 x072 x073 x100 x101 x102 x103 x120 x121 x122 x123 x130 x131 x132 x133 x140 
x141 x142 x143 x150 x151 x152 x153 x160 x161 x162 x163 x170 x171 x172 x173 x200 x201 x202 x203 x210 x211 x212 x213 x230 x231 x232 x233 x240 x241 x242 x243 x250 x251 x252 x253 x260 x261 x262 x263 x270 x271 
x272 x273 x300 x301 x302 x303 x310 x311 x312 x313 x320 x321 x322 x323 x340 x341 x342 x343 x350 x351 x352 x353 x360 x361 x362 x363 x370 x371 x372 x373 x400 x401 x402 x403 x410 x411 x412 x413 x420 x421 x422 
x423 x430 x431 x432 x433 x450 x451 x452 x453 x460 x461 x462 x463 x470 x471 x472 x473 x500 x501 x502 x503 x510 x511 x512 x513 x520 x521 x522 x523 x530 x531 x532 x533 x540 x541 x542 x543 x560 x561 x562 x563 
x570 x571 x572 x573 x600 x601 x602 x603 x610 x611 x612 x613 x620 x621 x622 x623 x630 x631 x632 x633 x640 x641 x642 x643 x650 x651 x652 x653 x670 x671 x672 x673 x700 x701 x702 x703 x710 x711 x712 x713 x720 
x721 x722 x723 x730 x731 x732 x733 x740 x741 x742 x743 x750 x751 x752 x753 x760 x761 x762 x763 
END